; benchmark generated from python API
(set-info :status unknown)
(declare-fun cell_1_3 () Int)
(declare-fun cell_2_4 () Int)
(declare-fun cell_3_8 () Int)
(declare-fun cell_4_1 () Int)
(declare-fun cell_5_9 () Int)
(declare-fun cell_6_6 () Int)
(declare-fun cell_1_1 () Int)
(declare-fun cell_2_1 () Int)
(declare-fun cell_3_1 () Int)
(declare-fun cell_5_1 () Int)
(declare-fun cell_6_1 () Int)
(declare-fun cell_7_1 () Int)
(declare-fun cell_8_1 () Int)
(declare-fun cell_9_1 () Int)
(declare-fun cell_1_2 () Int)
(declare-fun cell_2_2 () Int)
(declare-fun cell_3_2 () Int)
(declare-fun cell_4_2 () Int)
(declare-fun cell_5_2 () Int)
(declare-fun cell_6_2 () Int)
(declare-fun cell_7_2 () Int)
(declare-fun cell_8_2 () Int)
(declare-fun cell_9_2 () Int)
(declare-fun cell_2_3 () Int)
(declare-fun cell_3_3 () Int)
(declare-fun cell_4_3 () Int)
(declare-fun cell_5_3 () Int)
(declare-fun cell_6_3 () Int)
(declare-fun cell_7_3 () Int)
(declare-fun cell_8_3 () Int)
(declare-fun cell_9_3 () Int)
(declare-fun cell_1_4 () Int)
(declare-fun cell_3_4 () Int)
(declare-fun cell_4_4 () Int)
(declare-fun cell_5_4 () Int)
(declare-fun cell_6_4 () Int)
(declare-fun cell_7_4 () Int)
(declare-fun cell_8_4 () Int)
(declare-fun cell_9_4 () Int)
(declare-fun cell_1_5 () Int)
(declare-fun cell_2_5 () Int)
(declare-fun cell_3_5 () Int)
(declare-fun cell_4_5 () Int)
(declare-fun cell_5_5 () Int)
(declare-fun cell_6_5 () Int)
(declare-fun cell_7_5 () Int)
(declare-fun cell_8_5 () Int)
(declare-fun cell_9_5 () Int)
(declare-fun cell_1_6 () Int)
(declare-fun cell_2_6 () Int)
(declare-fun cell_3_6 () Int)
(declare-fun cell_4_6 () Int)
(declare-fun cell_5_6 () Int)
(declare-fun cell_7_6 () Int)
(declare-fun cell_8_6 () Int)
(declare-fun cell_9_6 () Int)
(declare-fun cell_1_7 () Int)
(declare-fun cell_2_7 () Int)
(declare-fun cell_3_7 () Int)
(declare-fun cell_4_7 () Int)
(declare-fun cell_5_7 () Int)
(declare-fun cell_6_7 () Int)
(declare-fun cell_7_7 () Int)
(declare-fun cell_8_7 () Int)
(declare-fun cell_9_7 () Int)
(declare-fun cell_1_8 () Int)
(declare-fun cell_2_8 () Int)
(declare-fun cell_4_8 () Int)
(declare-fun cell_5_8 () Int)
(declare-fun cell_6_8 () Int)
(declare-fun cell_7_8 () Int)
(declare-fun cell_8_8 () Int)
(declare-fun cell_9_8 () Int)
(declare-fun cell_1_9 () Int)
(declare-fun cell_2_9 () Int)
(declare-fun cell_3_9 () Int)
(declare-fun cell_4_9 () Int)
(declare-fun cell_6_9 () Int)
(declare-fun cell_7_9 () Int)
(declare-fun cell_8_9 () Int)
(declare-fun cell_9_9 () Int)
(assert
 (= cell_1_3 1))
(assert
 (= cell_2_4 1))
(assert
 (= cell_3_8 1))
(assert
 (= cell_4_1 1))
(assert
 (= cell_5_9 1))
(assert
 (= cell_6_6 1))
(assert
 (let (($x6830 (= cell_1_1 9)))
 (let (($x1492 (= cell_1_1 8)))
 (let (($x4577 (= cell_1_1 7)))
 (let (($x9100 (= cell_1_1 6)))
 (let (($x2241 (= cell_1_1 5)))
 (let (($x5362 (= cell_1_1 4)))
 (let (($x3792 (= cell_1_1 3)))
 (let (($x4101 (= cell_1_1 2)))
 (let (($x6452 (= cell_1_1 1)))
 (or $x6452 $x4101 $x3792 $x5362 $x2241 $x9100 $x4577 $x1492 $x6830)))))))))))
(assert
 (let (($x7908 (= cell_2_1 9)))
 (let (($x9187 (= cell_2_1 8)))
 (let (($x9948 (= cell_2_1 7)))
 (let (($x1943 (= cell_2_1 6)))
 (let (($x5535 (= cell_2_1 5)))
 (let (($x2497 (= cell_2_1 4)))
 (let (($x8518 (= cell_2_1 3)))
 (let (($x5076 (= cell_2_1 2)))
 (let (($x8068 (= cell_2_1 1)))
 (or $x8068 $x5076 $x8518 $x2497 $x5535 $x1943 $x9948 $x9187 $x7908)))))))))))
(assert
 (let (($x3383 (= cell_3_1 9)))
 (let (($x9134 (= cell_3_1 8)))
 (let (($x6809 (= cell_3_1 7)))
 (let (($x2837 (= cell_3_1 6)))
 (let (($x1726 (= cell_3_1 5)))
 (let (($x1773 (= cell_3_1 4)))
 (let (($x2887 (= cell_3_1 3)))
 (let (($x2436 (= cell_3_1 2)))
 (let (($x2558 (= cell_3_1 1)))
 (or $x2558 $x2436 $x2887 $x1773 $x1726 $x2837 $x6809 $x9134 $x3383)))))))))))
(assert
 (let (($x6498 (= cell_4_1 1)))
 (or $x6498 (= cell_4_1 2) (= cell_4_1 3) (= cell_4_1 4) (= cell_4_1 5) (= cell_4_1 6) (= cell_4_1 7) (= cell_4_1 8) (= cell_4_1 9))))
(assert
 (let (($x3599 (= cell_5_1 9)))
 (let (($x4614 (= cell_5_1 8)))
 (let (($x1500 (= cell_5_1 7)))
 (let (($x1835 (= cell_5_1 6)))
 (let (($x4009 (= cell_5_1 5)))
 (let (($x8675 (= cell_5_1 4)))
 (let (($x10183 (= cell_5_1 3)))
 (let (($x2708 (= cell_5_1 2)))
 (let (($x4593 (= cell_5_1 1)))
 (or $x4593 $x2708 $x10183 $x8675 $x4009 $x1835 $x1500 $x4614 $x3599)))))))))))
(assert
 (let (($x5175 (= cell_6_1 9)))
 (let (($x8533 (= cell_6_1 8)))
 (let (($x3773 (= cell_6_1 7)))
 (let (($x7679 (= cell_6_1 6)))
 (let (($x7037 (= cell_6_1 5)))
 (let (($x1118 (= cell_6_1 4)))
 (let (($x7066 (= cell_6_1 3)))
 (let (($x1111 (= cell_6_1 2)))
 (let (($x3213 (= cell_6_1 1)))
 (or $x3213 $x1111 $x7066 $x1118 $x7037 $x7679 $x3773 $x8533 $x5175)))))))))))
(assert
 (let (($x3958 (= cell_7_1 1)))
 (or $x3958 (= cell_7_1 2) (= cell_7_1 3) (= cell_7_1 4) (= cell_7_1 5) (= cell_7_1 6) (= cell_7_1 7) (= cell_7_1 8) (= cell_7_1 9))))
(assert
 (let (($x600 (= cell_8_1 1)))
 (or $x600 (= cell_8_1 2) (= cell_8_1 3) (= cell_8_1 4) (= cell_8_1 5) (= cell_8_1 6) (= cell_8_1 7) (= cell_8_1 8) (= cell_8_1 9))))
(assert
 (let (($x2867 (= cell_9_1 1)))
 (or $x2867 (= cell_9_1 2) (= cell_9_1 3) (= cell_9_1 4) (= cell_9_1 5) (= cell_9_1 6) (= cell_9_1 7) (= cell_9_1 8) (= cell_9_1 9))))
(assert
 (let (($x5962 (= cell_1_2 9)))
 (let (($x5656 (= cell_1_2 8)))
 (let (($x1839 (= cell_1_2 7)))
 (let (($x5803 (= cell_1_2 6)))
 (let (($x6929 (= cell_1_2 5)))
 (let (($x2958 (= cell_1_2 4)))
 (let (($x6061 (= cell_1_2 3)))
 (let (($x3614 (= cell_1_2 2)))
 (let (($x9230 (= cell_1_2 1)))
 (or $x9230 $x3614 $x6061 $x2958 $x6929 $x5803 $x1839 $x5656 $x5962)))))))))))
(assert
 (let (($x1357 (= cell_2_2 9)))
 (let (($x8159 (= cell_2_2 8)))
 (let (($x2086 (= cell_2_2 7)))
 (let (($x7449 (= cell_2_2 6)))
 (let (($x8662 (= cell_2_2 5)))
 (let (($x5641 (= cell_2_2 4)))
 (let (($x3247 (= cell_2_2 3)))
 (let (($x3941 (= cell_2_2 2)))
 (let (($x6786 (= cell_2_2 1)))
 (or $x6786 $x3941 $x3247 $x5641 $x8662 $x7449 $x2086 $x8159 $x1357)))))))))))
(assert
 (let (($x8594 (= cell_3_2 9)))
 (let (($x5863 (= cell_3_2 8)))
 (let (($x5969 (= cell_3_2 7)))
 (let (($x9695 (= cell_3_2 6)))
 (let (($x881 (= cell_3_2 5)))
 (let (($x8639 (= cell_3_2 4)))
 (let (($x8010 (= cell_3_2 3)))
 (let (($x713 (= cell_3_2 2)))
 (let (($x249 (= cell_3_2 1)))
 (or $x249 $x713 $x8010 $x8639 $x881 $x9695 $x5969 $x5863 $x8594)))))))))))
(assert
 (let (($x2560 (= cell_4_2 1)))
 (or $x2560 (= cell_4_2 2) (= cell_4_2 3) (= cell_4_2 4) (= cell_4_2 5) (= cell_4_2 6) (= cell_4_2 7) (= cell_4_2 8) (= cell_4_2 9))))
(assert
 (let (($x4762 (= cell_5_2 9)))
 (let (($x8302 (= cell_5_2 8)))
 (let (($x4098 (= cell_5_2 7)))
 (let (($x3844 (= cell_5_2 6)))
 (let (($x4456 (= cell_5_2 5)))
 (let (($x8842 (= cell_5_2 4)))
 (let (($x9334 (= cell_5_2 3)))
 (let (($x2248 (= cell_5_2 2)))
 (let (($x1478 (= cell_5_2 1)))
 (or $x1478 $x2248 $x9334 $x8842 $x4456 $x3844 $x4098 $x8302 $x4762)))))))))))
(assert
 (let (($x9935 (= cell_6_2 9)))
 (let (($x2044 (= cell_6_2 8)))
 (let (($x5011 (= cell_6_2 7)))
 (let (($x3034 (= cell_6_2 6)))
 (let (($x9235 (= cell_6_2 5)))
 (let (($x9886 (= cell_6_2 4)))
 (let (($x4622 (= cell_6_2 3)))
 (let (($x1446 (= cell_6_2 2)))
 (let (($x7553 (= cell_6_2 1)))
 (or $x7553 $x1446 $x4622 $x9886 $x9235 $x3034 $x5011 $x2044 $x9935)))))))))))
(assert
 (let (($x8869 (= cell_7_2 1)))
 (or $x8869 (= cell_7_2 2) (= cell_7_2 3) (= cell_7_2 4) (= cell_7_2 5) (= cell_7_2 6) (= cell_7_2 7) (= cell_7_2 8) (= cell_7_2 9))))
(assert
 (or (= cell_8_2 1) (= cell_8_2 2) (= cell_8_2 3) (= cell_8_2 4) (= cell_8_2 5) (= cell_8_2 6) (= cell_8_2 7) (= cell_8_2 8) (= cell_8_2 9)))
(assert
 (let (($x4252 (= cell_9_2 1)))
 (or $x4252 (= cell_9_2 2) (= cell_9_2 3) (= cell_9_2 4) (= cell_9_2 5) (= cell_9_2 6) (= cell_9_2 7) (= cell_9_2 8) (= cell_9_2 9))))
(assert
 (let (($x8917 (= cell_1_3 1)))
 (or $x8917 (= cell_1_3 2) (= cell_1_3 3) (= cell_1_3 4) (= cell_1_3 5) (= cell_1_3 6) (= cell_1_3 7) (= cell_1_3 8) (= cell_1_3 9))))
(assert
 (let (($x942 (= cell_2_3 9)))
 (let (($x1631 (= cell_2_3 8)))
 (let (($x2006 (= cell_2_3 7)))
 (let (($x5665 (= cell_2_3 6)))
 (let (($x49 (= cell_2_3 5)))
 (let (($x10030 (= cell_2_3 4)))
 (let (($x4606 (= cell_2_3 3)))
 (let (($x4531 (= cell_2_3 2)))
 (let (($x3663 (= cell_2_3 1)))
 (or $x3663 $x4531 $x4606 $x10030 $x49 $x5665 $x2006 $x1631 $x942)))))))))))
(assert
 (let (($x7837 (= cell_3_3 9)))
 (let (($x3288 (= cell_3_3 8)))
 (let (($x1665 (= cell_3_3 7)))
 (let (($x379 (= cell_3_3 6)))
 (let (($x6585 (= cell_3_3 5)))
 (let (($x7835 (= cell_3_3 4)))
 (let (($x8555 (= cell_3_3 3)))
 (let (($x9160 (= cell_3_3 2)))
 (let (($x8884 (= cell_3_3 1)))
 (or $x8884 $x9160 $x8555 $x7835 $x6585 $x379 $x1665 $x3288 $x7837)))))))))))
(assert
 (let (($x251 (= cell_4_3 1)))
 (or $x251 (= cell_4_3 2) (= cell_4_3 3) (= cell_4_3 4) (= cell_4_3 5) (= cell_4_3 6) (= cell_4_3 7) (= cell_4_3 8) (= cell_4_3 9))))
(assert
 (let (($x9730 (= cell_5_3 9)))
 (let (($x2640 (= cell_5_3 8)))
 (let (($x3237 (= cell_5_3 7)))
 (let (($x432 (= cell_5_3 6)))
 (let (($x7189 (= cell_5_3 5)))
 (let (($x7337 (= cell_5_3 4)))
 (let (($x5458 (= cell_5_3 3)))
 (let (($x7112 (= cell_5_3 2)))
 (let (($x8350 (= cell_5_3 1)))
 (or $x8350 $x7112 $x5458 $x7337 $x7189 $x432 $x3237 $x2640 $x9730)))))))))))
(assert
 (let (($x8692 (= cell_6_3 9)))
 (let (($x3176 (= cell_6_3 8)))
 (let (($x7816 (= cell_6_3 7)))
 (let (($x7546 (= cell_6_3 6)))
 (let (($x5785 (= cell_6_3 5)))
 (let (($x5337 (= cell_6_3 4)))
 (let (($x6350 (= cell_6_3 3)))
 (let (($x7608 (= cell_6_3 2)))
 (let (($x638 (= cell_6_3 1)))
 (or $x638 $x7608 $x6350 $x5337 $x5785 $x7546 $x7816 $x3176 $x8692)))))))))))
(assert
 (let (($x5079 (= cell_7_3 1)))
 (or $x5079 (= cell_7_3 2) (= cell_7_3 3) (= cell_7_3 4) (= cell_7_3 5) (= cell_7_3 6) (= cell_7_3 7) (= cell_7_3 8) (= cell_7_3 9))))
(assert
 (let (($x1527 (= cell_8_3 1)))
 (or $x1527 (= cell_8_3 2) (= cell_8_3 3) (= cell_8_3 4) (= cell_8_3 5) (= cell_8_3 6) (= cell_8_3 7) (= cell_8_3 8) (= cell_8_3 9))))
(assert
 (let (($x2492 (= cell_9_3 1)))
 (or $x2492 (= cell_9_3 2) (= cell_9_3 3) (= cell_9_3 4) (= cell_9_3 5) (= cell_9_3 6) (= cell_9_3 7) (= cell_9_3 8) (= cell_9_3 9))))
(assert
 (let (($x589 (= cell_1_4 9)))
 (let (($x3514 (= cell_1_4 8)))
 (let (($x473 (= cell_1_4 7)))
 (let (($x4234 (= cell_1_4 6)))
 (let (($x8968 (= cell_1_4 5)))
 (let (($x1131 (= cell_1_4 4)))
 (let (($x682 (= cell_1_4 3)))
 (let (($x2127 (= cell_1_4 2)))
 (let (($x7988 (= cell_1_4 1)))
 (or $x7988 $x2127 $x682 $x1131 $x8968 $x4234 $x473 $x3514 $x589)))))))))))
(assert
 (let (($x1845 (= cell_2_4 1)))
 (or $x1845 (= cell_2_4 2) (= cell_2_4 3) (= cell_2_4 4) (= cell_2_4 5) (= cell_2_4 6) (= cell_2_4 7) (= cell_2_4 8) (= cell_2_4 9))))
(assert
 (let (($x6874 (= cell_3_4 9)))
 (let (($x6623 (= cell_3_4 8)))
 (let (($x281 (= cell_3_4 7)))
 (let (($x6260 (= cell_3_4 6)))
 (let (($x7929 (= cell_3_4 5)))
 (let (($x1328 (= cell_3_4 4)))
 (let (($x7859 (= cell_3_4 3)))
 (let (($x5026 (= cell_3_4 2)))
 (let (($x3684 (= cell_3_4 1)))
 (or $x3684 $x5026 $x7859 $x1328 $x7929 $x6260 $x281 $x6623 $x6874)))))))))))
(assert
 (let (($x1214 (= cell_4_4 9)))
 (let (($x3215 (= cell_4_4 8)))
 (let (($x1058 (= cell_4_4 7)))
 (let (($x5258 (= cell_4_4 6)))
 (let (($x5886 (= cell_4_4 5)))
 (let (($x8718 (= cell_4_4 4)))
 (let (($x4892 (= cell_4_4 3)))
 (let (($x777 (= cell_4_4 2)))
 (let (($x3835 (= cell_4_4 1)))
 (or $x3835 $x777 $x4892 $x8718 $x5886 $x5258 $x1058 $x3215 $x1214)))))))))))
(assert
 (let (($x1067 (= cell_5_4 9)))
 (let (($x2634 (= cell_5_4 8)))
 (let (($x7889 (= cell_5_4 7)))
 (let (($x7071 (= cell_5_4 6)))
 (let (($x2367 (= cell_5_4 5)))
 (let (($x10129 (= cell_5_4 4)))
 (let (($x318 (= cell_5_4 3)))
 (let (($x9224 (= cell_5_4 2)))
 (let (($x7883 (= cell_5_4 1)))
 (or $x7883 $x9224 $x318 $x10129 $x2367 $x7071 $x7889 $x2634 $x1067)))))))))))
(assert
 (let (($x4487 (= cell_6_4 9)))
 (let (($x6165 (= cell_6_4 8)))
 (let (($x2487 (= cell_6_4 7)))
 (let (($x3955 (= cell_6_4 6)))
 (let (($x4130 (= cell_6_4 5)))
 (let (($x9171 (= cell_6_4 4)))
 (let (($x3380 (= cell_6_4 3)))
 (let (($x5473 (= cell_6_4 2)))
 (let (($x6317 (= cell_6_4 1)))
 (or $x6317 $x5473 $x3380 $x9171 $x4130 $x3955 $x2487 $x6165 $x4487)))))))))))
(assert
 (let (($x8540 (= cell_7_4 1)))
 (or $x8540 (= cell_7_4 2) (= cell_7_4 3) (= cell_7_4 4) (= cell_7_4 5) (= cell_7_4 6) (= cell_7_4 7) (= cell_7_4 8) (= cell_7_4 9))))
(assert
 (let (($x414 (= cell_8_4 1)))
 (or $x414 (= cell_8_4 2) (= cell_8_4 3) (= cell_8_4 4) (= cell_8_4 5) (= cell_8_4 6) (= cell_8_4 7) (= cell_8_4 8) (= cell_8_4 9))))
(assert
 (let (($x8227 (= cell_9_4 1)))
 (or $x8227 (= cell_9_4 2) (= cell_9_4 3) (= cell_9_4 4) (= cell_9_4 5) (= cell_9_4 6) (= cell_9_4 7) (= cell_9_4 8) (= cell_9_4 9))))
(assert
 (let (($x4507 (= cell_1_5 9)))
 (let (($x10245 (= cell_1_5 8)))
 (let (($x1041 (= cell_1_5 7)))
 (let (($x1531 (= cell_1_5 6)))
 (let (($x9840 (= cell_1_5 5)))
 (let (($x10040 (= cell_1_5 4)))
 (let (($x6400 (= cell_1_5 3)))
 (let (($x3211 (= cell_1_5 2)))
 (let (($x2154 (= cell_1_5 1)))
 (or $x2154 $x3211 $x6400 $x10040 $x9840 $x1531 $x1041 $x10245 $x4507)))))))))))
(assert
 (let (($x401 (= cell_2_5 1)))
 (or $x401 (= cell_2_5 2) (= cell_2_5 3) (= cell_2_5 4) (= cell_2_5 5) (= cell_2_5 6) (= cell_2_5 7) (= cell_2_5 8) (= cell_2_5 9))))
(assert
 (let (($x8319 (= cell_3_5 9)))
 (let (($x4046 (= cell_3_5 8)))
 (let (($x94 (= cell_3_5 7)))
 (let (($x6801 (= cell_3_5 6)))
 (let (($x3448 (= cell_3_5 5)))
 (let (($x9587 (= cell_3_5 4)))
 (let (($x1345 (= cell_3_5 3)))
 (let (($x2937 (= cell_3_5 2)))
 (let (($x4875 (= cell_3_5 1)))
 (or $x4875 $x2937 $x1345 $x9587 $x3448 $x6801 $x94 $x4046 $x8319)))))))))))
(assert
 (let (($x6546 (= cell_4_5 9)))
 (let (($x9818 (= cell_4_5 8)))
 (let (($x2520 (= cell_4_5 7)))
 (let (($x6753 (= cell_4_5 6)))
 (let (($x6424 (= cell_4_5 5)))
 (let (($x9282 (= cell_4_5 4)))
 (let (($x2023 (= cell_4_5 3)))
 (let (($x10259 (= cell_4_5 2)))
 (let (($x5407 (= cell_4_5 1)))
 (or $x5407 $x10259 $x2023 $x9282 $x6424 $x6753 $x2520 $x9818 $x6546)))))))))))
(assert
 (let (($x9062 (= cell_5_5 9)))
 (let (($x5903 (= cell_5_5 8)))
 (let (($x2439 (= cell_5_5 7)))
 (let (($x8531 (= cell_5_5 6)))
 (let (($x5897 (= cell_5_5 5)))
 (let (($x9459 (= cell_5_5 4)))
 (let (($x10093 (= cell_5_5 3)))
 (let (($x2031 (= cell_5_5 2)))
 (let (($x6135 (= cell_5_5 1)))
 (or $x6135 $x2031 $x10093 $x9459 $x5897 $x8531 $x2439 $x5903 $x9062)))))))))))
(assert
 (let (($x80 (= cell_6_5 9)))
 (let (($x3214 (= cell_6_5 8)))
 (let (($x6924 (= cell_6_5 7)))
 (let (($x6916 (= cell_6_5 6)))
 (let (($x7398 (= cell_6_5 5)))
 (let (($x7125 (= cell_6_5 4)))
 (let (($x5320 (= cell_6_5 3)))
 (let (($x9261 (= cell_6_5 2)))
 (let (($x5590 (= cell_6_5 1)))
 (or $x5590 $x9261 $x5320 $x7125 $x7398 $x6916 $x6924 $x3214 $x80)))))))))))
(assert
 (or (= cell_7_5 1) (= cell_7_5 2) (= cell_7_5 3) (= cell_7_5 4) (= cell_7_5 5) (= cell_7_5 6) (= cell_7_5 7) (= cell_7_5 8) (= cell_7_5 9)))
(assert
 (or (= cell_8_5 1) (= cell_8_5 2) (= cell_8_5 3) (= cell_8_5 4) (= cell_8_5 5) (= cell_8_5 6) (= cell_8_5 7) (= cell_8_5 8) (= cell_8_5 9)))
(assert
 (or (= cell_9_5 1) (= cell_9_5 2) (= cell_9_5 3) (= cell_9_5 4) (= cell_9_5 5) (= cell_9_5 6) (= cell_9_5 7) (= cell_9_5 8) (= cell_9_5 9)))
(assert
 (let (($x1124 (= cell_1_6 9)))
 (let (($x2576 (= cell_1_6 8)))
 (let (($x6934 (= cell_1_6 7)))
 (let (($x9716 (= cell_1_6 6)))
 (let (($x4548 (= cell_1_6 5)))
 (let (($x7090 (= cell_1_6 4)))
 (let (($x1213 (= cell_1_6 3)))
 (let (($x8651 (= cell_1_6 2)))
 (let (($x9746 (= cell_1_6 1)))
 (or $x9746 $x8651 $x1213 $x7090 $x4548 $x9716 $x6934 $x2576 $x1124)))))))))))
(assert
 (let (($x5979 (= cell_2_6 9)))
 (let (($x5237 (= cell_2_6 8)))
 (let (($x5839 (= cell_2_6 7)))
 (let (($x1209 (= cell_2_6 6)))
 (let (($x4334 (= cell_2_6 5)))
 (let (($x4953 (= cell_2_6 4)))
 (let (($x2282 (= cell_2_6 3)))
 (let (($x7993 (= cell_2_6 2)))
 (let (($x9621 (= cell_2_6 1)))
 (or $x9621 $x7993 $x2282 $x4953 $x4334 $x1209 $x5839 $x5237 $x5979)))))))))))
(assert
 (let (($x6751 (= cell_3_6 9)))
 (let (($x188 (= cell_3_6 8)))
 (let (($x261 (= cell_3_6 7)))
 (let (($x311 (= cell_3_6 6)))
 (let (($x6161 (= cell_3_6 5)))
 (let (($x986 (= cell_3_6 4)))
 (let (($x8095 (= cell_3_6 3)))
 (let (($x2011 (= cell_3_6 2)))
 (let (($x2624 (= cell_3_6 1)))
 (or $x2624 $x2011 $x8095 $x986 $x6161 $x311 $x261 $x188 $x6751)))))))))))
(assert
 (let (($x7263 (= cell_4_6 9)))
 (let (($x2452 (= cell_4_6 8)))
 (let (($x5653 (= cell_4_6 7)))
 (let (($x9446 (= cell_4_6 6)))
 (let (($x7933 (= cell_4_6 5)))
 (let (($x4040 (= cell_4_6 4)))
 (let (($x6181 (= cell_4_6 3)))
 (let (($x9664 (= cell_4_6 2)))
 (let (($x9426 (= cell_4_6 1)))
 (or $x9426 $x9664 $x6181 $x4040 $x7933 $x9446 $x5653 $x2452 $x7263)))))))))))
(assert
 (let (($x7674 (= cell_5_6 9)))
 (let (($x4800 (= cell_5_6 8)))
 (let (($x7005 (= cell_5_6 7)))
 (let (($x8588 (= cell_5_6 6)))
 (let (($x6326 (= cell_5_6 5)))
 (let (($x7085 (= cell_5_6 4)))
 (let (($x204 (= cell_5_6 3)))
 (let (($x9528 (= cell_5_6 2)))
 (let (($x7518 (= cell_5_6 1)))
 (or $x7518 $x9528 $x204 $x7085 $x6326 $x8588 $x7005 $x4800 $x7674)))))))))))
(assert
 (let (($x1145 (= cell_6_6 1)))
 (or $x1145 (= cell_6_6 2) (= cell_6_6 3) (= cell_6_6 4) (= cell_6_6 5) (= cell_6_6 6) (= cell_6_6 7) (= cell_6_6 8) (= cell_6_6 9))))
(assert
 (let (($x6905 (= cell_7_6 1)))
 (or $x6905 (= cell_7_6 2) (= cell_7_6 3) (= cell_7_6 4) (= cell_7_6 5) (= cell_7_6 6) (= cell_7_6 7) (= cell_7_6 8) (= cell_7_6 9))))
(assert
 (let (($x1397 (= cell_8_6 1)))
 (or $x1397 (= cell_8_6 2) (= cell_8_6 3) (= cell_8_6 4) (= cell_8_6 5) (= cell_8_6 6) (= cell_8_6 7) (= cell_8_6 8) (= cell_8_6 9))))
(assert
 (let (($x8353 (= cell_9_6 1)))
 (or $x8353 (= cell_9_6 2) (= cell_9_6 3) (= cell_9_6 4) (= cell_9_6 5) (= cell_9_6 6) (= cell_9_6 7) (= cell_9_6 8) (= cell_9_6 9))))
(assert
 (let (($x8707 (= cell_1_7 9)))
 (let (($x7828 (= cell_1_7 8)))
 (let (($x5501 (= cell_1_7 7)))
 (let (($x3138 (= cell_1_7 6)))
 (let (($x5492 (= cell_1_7 5)))
 (let (($x4976 (= cell_1_7 4)))
 (let (($x6082 (= cell_1_7 3)))
 (let (($x8082 (= cell_1_7 2)))
 (let (($x540 (= cell_1_7 1)))
 (or $x540 $x8082 $x6082 $x4976 $x5492 $x3138 $x5501 $x7828 $x8707)))))))))))
(assert
 (let (($x6261 (= cell_2_7 9)))
 (let (($x3603 (= cell_2_7 8)))
 (let (($x1294 (= cell_2_7 7)))
 (let (($x7092 (= cell_2_7 6)))
 (let (($x7534 (= cell_2_7 5)))
 (let (($x985 (= cell_2_7 4)))
 (let (($x4849 (= cell_2_7 3)))
 (let (($x4699 (= cell_2_7 2)))
 (let (($x9758 (= cell_2_7 1)))
 (or $x9758 $x4699 $x4849 $x985 $x7534 $x7092 $x1294 $x3603 $x6261)))))))))))
(assert
 (let (($x1223 (= cell_3_7 9)))
 (let (($x9961 (= cell_3_7 8)))
 (let (($x1116 (= cell_3_7 7)))
 (let (($x5200 (= cell_3_7 6)))
 (let (($x9881 (= cell_3_7 5)))
 (let (($x7897 (= cell_3_7 4)))
 (let (($x405 (= cell_3_7 3)))
 (let (($x7740 (= cell_3_7 2)))
 (let (($x7717 (= cell_3_7 1)))
 (or $x7717 $x7740 $x405 $x7897 $x9881 $x5200 $x1116 $x9961 $x1223)))))))))))
(assert
 (let (($x7592 (= cell_4_7 9)))
 (let (($x612 (= cell_4_7 8)))
 (let (($x5226 (= cell_4_7 7)))
 (let (($x6233 (= cell_4_7 6)))
 (let (($x4139 (= cell_4_7 5)))
 (let (($x3732 (= cell_4_7 4)))
 (let (($x5774 (= cell_4_7 3)))
 (let (($x420 (= cell_4_7 2)))
 (let (($x3866 (= cell_4_7 1)))
 (or $x3866 $x420 $x5774 $x3732 $x4139 $x6233 $x5226 $x612 $x7592)))))))))))
(assert
 (let (($x6502 (= cell_5_7 9)))
 (let (($x515 (= cell_5_7 8)))
 (let (($x4248 (= cell_5_7 7)))
 (let (($x4588 (= cell_5_7 6)))
 (let (($x9585 (= cell_5_7 5)))
 (let (($x1022 (= cell_5_7 4)))
 (let (($x1577 (= cell_5_7 3)))
 (let (($x10141 (= cell_5_7 2)))
 (let (($x9691 (= cell_5_7 1)))
 (or $x9691 $x10141 $x1577 $x1022 $x9585 $x4588 $x4248 $x515 $x6502)))))))))))
(assert
 (let (($x6897 (= cell_6_7 1)))
 (or $x6897 (= cell_6_7 2) (= cell_6_7 3) (= cell_6_7 4) (= cell_6_7 5) (= cell_6_7 6) (= cell_6_7 7) (= cell_6_7 8) (= cell_6_7 9))))
(assert
 (let (($x8050 (= cell_7_7 1)))
 (or $x8050 (= cell_7_7 2) (= cell_7_7 3) (= cell_7_7 4) (= cell_7_7 5) (= cell_7_7 6) (= cell_7_7 7) (= cell_7_7 8) (= cell_7_7 9))))
(assert
 (or (= cell_8_7 1) (= cell_8_7 2) (= cell_8_7 3) (= cell_8_7 4) (= cell_8_7 5) (= cell_8_7 6) (= cell_8_7 7) (= cell_8_7 8) (= cell_8_7 9)))
(assert
 (or (= cell_9_7 1) (= cell_9_7 2) (= cell_9_7 3) (= cell_9_7 4) (= cell_9_7 5) (= cell_9_7 6) (= cell_9_7 7) (= cell_9_7 8) (= cell_9_7 9)))
(assert
 (let (($x5349 (= cell_1_8 9)))
 (let (($x2706 (= cell_1_8 8)))
 (let (($x1966 (= cell_1_8 7)))
 (let (($x6057 (= cell_1_8 6)))
 (let (($x5669 (= cell_1_8 5)))
 (let (($x6704 (= cell_1_8 4)))
 (let (($x8401 (= cell_1_8 3)))
 (let (($x7144 (= cell_1_8 2)))
 (let (($x1921 (= cell_1_8 1)))
 (or $x1921 $x7144 $x8401 $x6704 $x5669 $x6057 $x1966 $x2706 $x5349)))))))))))
(assert
 (let (($x3619 (= cell_2_8 9)))
 (let (($x4117 (= cell_2_8 8)))
 (let (($x8812 (= cell_2_8 7)))
 (let (($x4618 (= cell_2_8 6)))
 (let (($x5506 (= cell_2_8 5)))
 (let (($x7193 (= cell_2_8 4)))
 (let (($x5135 (= cell_2_8 3)))
 (let (($x9388 (= cell_2_8 2)))
 (let (($x3605 (= cell_2_8 1)))
 (or $x3605 $x9388 $x5135 $x7193 $x5506 $x4618 $x8812 $x4117 $x3619)))))))))))
(assert
 (let (($x7656 (= cell_3_8 1)))
 (or $x7656 (= cell_3_8 2) (= cell_3_8 3) (= cell_3_8 4) (= cell_3_8 5) (= cell_3_8 6) (= cell_3_8 7) (= cell_3_8 8) (= cell_3_8 9))))
(assert
 (let (($x6105 (= cell_4_8 9)))
 (let (($x2278 (= cell_4_8 8)))
 (let (($x8995 (= cell_4_8 7)))
 (let (($x1742 (= cell_4_8 6)))
 (let (($x9999 (= cell_4_8 5)))
 (let (($x5223 (= cell_4_8 4)))
 (let (($x4718 (= cell_4_8 3)))
 (let (($x8191 (= cell_4_8 2)))
 (let (($x10239 (= cell_4_8 1)))
 (or $x10239 $x8191 $x4718 $x5223 $x9999 $x1742 $x8995 $x2278 $x6105)))))))))))
(assert
 (let (($x1422 (= cell_5_8 9)))
 (let (($x5016 (= cell_5_8 8)))
 (let (($x3715 (= cell_5_8 7)))
 (let (($x9748 (= cell_5_8 6)))
 (let (($x3798 (= cell_5_8 5)))
 (let (($x6783 (= cell_5_8 4)))
 (let (($x389 (= cell_5_8 3)))
 (let (($x4484 (= cell_5_8 2)))
 (let (($x5162 (= cell_5_8 1)))
 (or $x5162 $x4484 $x389 $x6783 $x3798 $x9748 $x3715 $x5016 $x1422)))))))))))
(assert
 (let (($x8016 (= cell_6_8 1)))
 (or $x8016 (= cell_6_8 2) (= cell_6_8 3) (= cell_6_8 4) (= cell_6_8 5) (= cell_6_8 6) (= cell_6_8 7) (= cell_6_8 8) (= cell_6_8 9))))
(assert
 (let (($x1198 (= cell_7_8 1)))
 (or $x1198 (= cell_7_8 2) (= cell_7_8 3) (= cell_7_8 4) (= cell_7_8 5) (= cell_7_8 6) (= cell_7_8 7) (= cell_7_8 8) (= cell_7_8 9))))
(assert
 (let (($x2005 (= cell_8_8 1)))
 (or $x2005 (= cell_8_8 2) (= cell_8_8 3) (= cell_8_8 4) (= cell_8_8 5) (= cell_8_8 6) (= cell_8_8 7) (= cell_8_8 8) (= cell_8_8 9))))
(assert
 (let (($x3296 (= cell_9_8 1)))
 (or $x3296 (= cell_9_8 2) (= cell_9_8 3) (= cell_9_8 4) (= cell_9_8 5) (= cell_9_8 6) (= cell_9_8 7) (= cell_9_8 8) (= cell_9_8 9))))
(assert
 (let (($x319 (= cell_1_9 9)))
 (let (($x441 (= cell_1_9 8)))
 (let (($x7569 (= cell_1_9 7)))
 (let (($x3092 (= cell_1_9 6)))
 (let (($x8741 (= cell_1_9 5)))
 (let (($x2685 (= cell_1_9 4)))
 (let (($x9313 (= cell_1_9 3)))
 (let (($x1502 (= cell_1_9 2)))
 (let (($x7900 (= cell_1_9 1)))
 (or $x7900 $x1502 $x9313 $x2685 $x8741 $x3092 $x7569 $x441 $x319)))))))))))
(assert
 (let (($x9025 (= cell_2_9 9)))
 (let (($x7877 (= cell_2_9 8)))
 (let (($x7149 (= cell_2_9 7)))
 (let (($x4649 (= cell_2_9 6)))
 (let (($x5933 (= cell_2_9 5)))
 (let (($x1543 (= cell_2_9 4)))
 (let (($x2238 (= cell_2_9 3)))
 (let (($x5999 (= cell_2_9 2)))
 (let (($x2270 (= cell_2_9 1)))
 (or $x2270 $x5999 $x2238 $x1543 $x5933 $x4649 $x7149 $x7877 $x9025)))))))))))
(assert
 (let (($x4340 (= cell_3_9 9)))
 (let (($x9814 (= cell_3_9 8)))
 (let (($x6688 (= cell_3_9 7)))
 (let (($x5834 (= cell_3_9 6)))
 (let (($x5507 (= cell_3_9 5)))
 (let (($x3810 (= cell_3_9 4)))
 (let (($x5923 (= cell_3_9 3)))
 (let (($x3195 (= cell_3_9 2)))
 (let (($x9293 (= cell_3_9 1)))
 (or $x9293 $x3195 $x5923 $x3810 $x5507 $x5834 $x6688 $x9814 $x4340)))))))))))
(assert
 (let (($x4903 (= cell_4_9 9)))
 (let (($x9076 (= cell_4_9 8)))
 (let (($x8997 (= cell_4_9 7)))
 (let (($x3017 (= cell_4_9 6)))
 (let (($x1323 (= cell_4_9 5)))
 (let (($x5273 (= cell_4_9 4)))
 (let (($x3754 (= cell_4_9 3)))
 (let (($x3845 (= cell_4_9 2)))
 (let (($x3480 (= cell_4_9 1)))
 (or $x3480 $x3845 $x3754 $x5273 $x1323 $x3017 $x8997 $x9076 $x4903)))))))))))
(assert
 (let (($x4445 (= cell_5_9 1)))
 (or $x4445 (= cell_5_9 2) (= cell_5_9 3) (= cell_5_9 4) (= cell_5_9 5) (= cell_5_9 6) (= cell_5_9 7) (= cell_5_9 8) (= cell_5_9 9))))
(assert
 (let (($x3365 (= cell_6_9 1)))
 (or $x3365 (= cell_6_9 2) (= cell_6_9 3) (= cell_6_9 4) (= cell_6_9 5) (= cell_6_9 6) (= cell_6_9 7) (= cell_6_9 8) (= cell_6_9 9))))
(assert
 (let (($x7252 (= cell_7_9 1)))
 (or $x7252 (= cell_7_9 2) (= cell_7_9 3) (= cell_7_9 4) (= cell_7_9 5) (= cell_7_9 6) (= cell_7_9 7) (= cell_7_9 8) (= cell_7_9 9))))
(assert
 (let (($x3184 (= cell_8_9 1)))
 (or $x3184 (= cell_8_9 2) (= cell_8_9 3) (= cell_8_9 4) (= cell_8_9 5) (= cell_8_9 6) (= cell_8_9 7) (= cell_8_9 8) (= cell_8_9 9))))
(assert
 (let (($x2102 (= cell_9_9 1)))
 (or $x2102 (= cell_9_9 2) (= cell_9_9 3) (= cell_9_9 4) (= cell_9_9 5) (= cell_9_9 6) (= cell_9_9 7) (= cell_9_9 8) (= cell_9_9 9))))
(assert
 (and (distinct cell_1_1 cell_1_2 cell_1_3 cell_1_4 cell_1_5 cell_1_6 cell_1_7 cell_1_8 cell_1_9) true))
(assert
 (and (distinct cell_2_1 cell_2_2 cell_2_3 cell_2_4 cell_2_5 cell_2_6 cell_2_7 cell_2_8 cell_2_9) true))
(assert
 (and (distinct cell_3_1 cell_3_2 cell_3_3 cell_3_4 cell_3_5 cell_3_6 cell_3_7 cell_3_8 cell_3_9) true))
(assert
 (and (distinct cell_4_1 cell_4_2 cell_4_3 cell_4_4 cell_4_5 cell_4_6 cell_4_7 cell_4_8 cell_4_9) true))
(assert
 (and (distinct cell_5_1 cell_5_2 cell_5_3 cell_5_4 cell_5_5 cell_5_6 cell_5_7 cell_5_8 cell_5_9) true))
(assert
 (and (distinct cell_6_1 cell_6_2 cell_6_3 cell_6_4 cell_6_5 cell_6_6 cell_6_7 cell_6_8 cell_6_9) true))
(assert
 (and (distinct cell_7_1 cell_7_2 cell_7_3 cell_7_4 cell_7_5 cell_7_6 cell_7_7 cell_7_8 cell_7_9) true))
(assert
 (and (distinct cell_8_1 cell_8_2 cell_8_3 cell_8_4 cell_8_5 cell_8_6 cell_8_7 cell_8_8 cell_8_9) true))
(assert
 (and (distinct cell_9_1 cell_9_2 cell_9_3 cell_9_4 cell_9_5 cell_9_6 cell_9_7 cell_9_8 cell_9_9) true))
(assert
 (and (distinct cell_1_1 cell_2_1 cell_3_1 cell_4_1 cell_5_1 cell_6_1 cell_7_1 cell_8_1 cell_9_1) true))
(assert
 (and (distinct cell_1_2 cell_2_2 cell_3_2 cell_4_2 cell_5_2 cell_6_2 cell_7_2 cell_8_2 cell_9_2) true))
(assert
 (and (distinct cell_1_3 cell_2_3 cell_3_3 cell_4_3 cell_5_3 cell_6_3 cell_7_3 cell_8_3 cell_9_3) true))
(assert
 (and (distinct cell_1_4 cell_2_4 cell_3_4 cell_4_4 cell_5_4 cell_6_4 cell_7_4 cell_8_4 cell_9_4) true))
(assert
 (and (distinct cell_1_5 cell_2_5 cell_3_5 cell_4_5 cell_5_5 cell_6_5 cell_7_5 cell_8_5 cell_9_5) true))
(assert
 (and (distinct cell_1_6 cell_2_6 cell_3_6 cell_4_6 cell_5_6 cell_6_6 cell_7_6 cell_8_6 cell_9_6) true))
(assert
 (and (distinct cell_1_7 cell_2_7 cell_3_7 cell_4_7 cell_5_7 cell_6_7 cell_7_7 cell_8_7 cell_9_7) true))
(assert
 (and (distinct cell_1_8 cell_2_8 cell_3_8 cell_4_8 cell_5_8 cell_6_8 cell_7_8 cell_8_8 cell_9_8) true))
(assert
 (and (distinct cell_1_9 cell_2_9 cell_3_9 cell_4_9 cell_5_9 cell_6_9 cell_7_9 cell_8_9 cell_9_9) true))
(assert
 (and (distinct cell_1_1 cell_1_2 cell_1_3 cell_2_1 cell_2_2 cell_2_3 cell_3_1 cell_3_2 cell_3_3) true))
(assert
 (and (distinct cell_1_4 cell_1_5 cell_1_6 cell_2_4 cell_2_5 cell_2_6 cell_3_4 cell_3_5 cell_3_6) true))
(assert
 (and (distinct cell_1_7 cell_1_8 cell_1_9 cell_2_7 cell_2_8 cell_2_9 cell_3_7 cell_3_8 cell_3_9) true))
(assert
 (and (distinct cell_4_1 cell_4_2 cell_4_3 cell_5_1 cell_5_2 cell_5_3 cell_6_1 cell_6_2 cell_6_3) true))
(assert
 (and (distinct cell_4_4 cell_4_5 cell_4_6 cell_5_4 cell_5_5 cell_5_6 cell_6_4 cell_6_5 cell_6_6) true))
(assert
 (and (distinct cell_4_7 cell_4_8 cell_4_9 cell_5_7 cell_5_8 cell_5_9 cell_6_7 cell_6_8 cell_6_9) true))
(assert
 (and (distinct cell_7_1 cell_7_2 cell_7_3 cell_8_1 cell_8_2 cell_8_3 cell_9_1 cell_9_2 cell_9_3) true))
(assert
 (and (distinct cell_7_4 cell_7_5 cell_7_6 cell_8_4 cell_8_5 cell_8_6 cell_9_4 cell_9_5 cell_9_6) true))
(assert
 (and (distinct cell_7_7 cell_7_8 cell_7_9 cell_8_7 cell_8_8 cell_8_9 cell_9_7 cell_9_8 cell_9_9) true))
(assert
 (let (($x3731 (and (distinct cell_5_9 cell_6_8 cell_7_7 cell_8_6) true)))
 (let (($x3454 (and (distinct cell_2_9 cell_3_8 cell_4_7 cell_5_6 cell_6_5 cell_7_4 cell_8_3 cell_9_2) true)))
 (let (($x658 (and (distinct cell_1_8 cell_2_7 cell_3_6 cell_4_5 cell_5_4 cell_6_3 cell_7_2 cell_8_1) true)))
 (let (($x2993 (and (distinct cell_1_5 cell_2_4 cell_3_3 cell_4_2) true)))
 (let (($x2729 (and (distinct cell_5_1 cell_6_2 cell_7_3 cell_8_4) true)))
 (let (($x1596 (and (distinct cell_2_1 cell_3_2 cell_4_3 cell_5_4 cell_6_5 cell_7_6 cell_8_7 cell_9_8) true)))
 (let (($x8436 (and (distinct cell_1_2 cell_2_3 cell_3_4 cell_4_5 cell_5_6 cell_6_7 cell_7_8 cell_8_9) true)))
 (let (($x9803 (and (distinct cell_1_5 cell_2_6 cell_3_7 cell_4_8) true)))
 (and $x9803 $x8436 $x1596 $x2729 $x2993 $x658 $x3454 $x3731))))))))))
(assert
 (= cell_7_2 1))
(check-sat)
